
  32    1
  10

   0   0  12 2 3 4 5 6 7 8 9 12 13 20 21 
   7   1   8 31 29 28 27 26 16 15 14 
   1   3   6 30 28 26 16 14 11 
   8   9   6 29 28 27 19 18 10 
   6   5   9 31 29 28 27 26 24 23 19 17 
   2   4   6 30 28 26 25 22 15 
   5   6   5 28 27 26 23 14 
   8   6   3 26 15 14 
   2   6   4 27 18 16 15 
   4  10   3 25 17 15 
   5   6   4 27 25 24 22 
   4   6   4 26 25 24 23 
   9   4   2 22 15 
   8   5   2 25 17 
  10   6   2 24 23 
   9   5   2 24 23 
   4   7   1 22 
   2   7   1 22 
  10   6   1 22 
   1   5   1 29 
   8   7   1 23 
   5   4   1 32
   5   4   1 32
   1   7   1 32
   6   7   1 32
  10   7   1 32
   3   8   1 32
   7   8   1 32
   1   8   1 32
   3   5   1 32
  10   8   1 32
   0   0   0 
